************************************************************************
file with basedata            : j60_17.bas
initial value random generator: 1924954119
************************************************************************
projects                      :  1
jobs (incl. supersource/sink ):  62
horizon                       :  363
RESOURCES
  - renewable                 :  4   R
  - nonrenewable              :  0   N
  - doubly constrained        :  0   D
************************************************************************
PROJECT INFORMATION:
pronr.  #jobs rel.date duedate tardcost  MPM-Time
    1     60      0       71       17       71
************************************************************************
PRECEDENCE RELATIONS:
jobnr.    #modes  #successors   successors
   1        1          3           2   3   4
   2        1          1          61
   3        1          3           6   7  20
   4        1          3           5   9  10
   5        1          2          28  39
   6        1          1          17
   7        1          3           8  16  23
   8        1          2          12  13
   9        1          1          24
  10        1          2          11  21
  11        1          1          19
  12        1          1          15
  13        1          2          14  57
  14        1          1          46
  15        1          2          18  25
  16        1          3          22  25  29
  17        1          2          42  49
  18        1          1          26
  19        1          2          30  54
  20        1          1          41
  21        1          1          48
  22        1          1          44
  23        1          2          49  55
  24        1          3          34  35  46
  25        1          2          27  34
  26        1          2          40  60
  27        1          3          31  37  43
  28        1          1          38
  29        1          1          56
  30        1          1          32
  31        1          2          32  52
  32        1          1          33
  33        1          1          51
  34        1          2          49  50
  35        1          2          36  38
  36        1          1          48
  37        1          1          48
  38        1          2          41  43
  39        1          1          57
  40        1          1          45
  41        1          1          53
  42        1          1          43
  43        1          1          54
  44        1          1          52
  45        1          3          47  50  58
  46        1          2          47  51
  47        1          1          52
  48        1          1          57
  49        1          1          59
  50        1          1          59
  51        1          1          53
  52        1          1          59
  53        1          1          60
  54        1          1          56
  55        1          2          56  60
  56        1          1          58
  57        1          1          61
  58        1          1          61
  59        1          1          62
  60        1          1          62
  61        1          1          62
  62        1          0        
************************************************************************
REQUESTS/DURATIONS:
jobnr. mode duration  R 1  R 2  R 3  R 4
------------------------------------------------------------------------
  1      1     0       0    0    0    0
  2      1    10       0    9    0    0
  3      1     1       0    0    1    0
  4      1     9       1    0    0    0
  5      1     6       0    0    6    0
  6      1    10       0    0    0    6
  7      1     3       0    0    0    7
  8      1     5       0    0    0    4
  9      1     5       7    0    0    0
 10      1    10       0    0    3    0
 11      1     9       0    0    8    0
 12      1    10       0    0    0    4
 13      1    10       6    0    0    0
 14      1    10       0    0    9    0
 15      1     2       0    0    5    0
 16      1     6       5    0    0    0
 17      1     6      10    0    0    0
 18      1     1       0    0    0    1
 19      1     6       0    0   10    0
 20      1     7       0    0    0    1
 21      1     8       0    0    0   10
 22      1     3       0    0    7    0
 23      1     9       0    8    0    0
 24      1     9       2    0    0    0
 25      1     6       0    0    6    0
 26      1     3       8    0    0    0
 27      1     3       0    0    0    7
 28      1     8       7    0    0    0
 29      1     4       0    0    0    8
 30      1     2       0    0    0    7
 31      1     5       0    8    0    0
 32      1     8       0    0    0    5
 33      1     2       0    0    0    7
 34      1     2       0    0    1    0
 35      1    10       0    0    0    8
 36      1     8       7    0    0    0
 37      1     8       0   10    0    0
 38      1     8       0    0    3    0
 39      1     2       0    5    0    0
 40      1     8       0    0    5    0
 41      1     4       0    0   10    0
 42      1     4      10    0    0    0
 43      1     8       1    0    0    0
 44      1     6       0    3    0    0
 45      1     4       0    0    2    0
 46      1     8       0    0   10    0
 47      1     6       2    0    0    0
 48      1     3       0   10    0    0
 49      1     9       0    0    0    1
 50      1     3       0    0    0    1
 51      1     8       0    0    0    4
 52      1     7       0    1    0    0
 53      1     4       0    0    5    0
 54      1     6       0    0    0    4
 55      1     8       0    0    0    5
 56      1     5       0    0    0    7
 57      1     9       0    2    0    0
 58      1    10       0    0    0    5
 59      1     1       0    8    0    0
 60      1     7       0    0    9    0
 61      1     1       0    0    0    5
 62      1     0       0    0    0    0
************************************************************************
RESOURCEAVAILABILITIES:
  R 1  R 2  R 3  R 4
   13   12   14   12
************************************************************************
